750
50 50
1 35 821
2 35 516
3 35 431
4 35 216
5 35 823
6 35 426
7 35 891
8 35 191
9 35 507
10 35 462
11 35 503
12 35 707
13 35 878
14 35 834
15 35 798
16 35 573
17 35 671
18 35 925
19 35 644
20 35 624
21 35 625
22 35 202
23 35 171
24 35 987
25 35 822
26 35 652
27 35 940
28 35 478
29 35 762
30 35 613
31 35 942
32 35 575
33 35 998
34 35 874
35 35 189
36 35 376
37 35 776
38 35 446
39 34 855
40 34 956
41 34 117
42 34 844
43 34 266
44 34 190
45 34 271
46 34 229
47 34 868
48 34 74
49 34 926
50 34 872
51 34 927
52 34 1
53 34 645
54 34 285
55 34 485
56 34 83
57 34 621
58 34 85
59 34 862
60 34 226
61 34 350
62 34 582
63 34 848
64 33 66
65 33 917
66 33 929
67 33 938
68 33 615
69 33 107
70 33 137
71 33 856
72 33 232
73 33 857
74 33 805
75 33 747
76 33 366
77 33 843
78 33 110
79 33 715
80 33 127
81 33 141
82 33 843
83 33 533
84 33 653
85 33 131
86 33 76
87 33 565
88 33 139
89 33 43
90 32 944
91 32 351
92 32 403
93 32 972
94 32 480
95 32 196
96 32 33
97 32 581
98 32 327
99 32 683
100 32 828
101 32 816
102 32 784
103 32 281
104 32 430
105 32 998
106 32 515
107 32 858
108 32 356
109 32 908
110 32 224
111 32 275
112 32 597
113 32 915
114 32 580
115 32 560
116 32 978
117 32 948
118 32 111
119 32 863
120 32 697
121 32 804
122 32 834
123 32 506
124 32 404
125 31 193
126 31 458
127 31 951
128 31 892
129 31 547
130 31 432
131 31 328
132 31 299
133 31 994
134 31 503
135 31 463
136 31 514
137 31 757
138 31 367
139 31 186
140 31 643
141 31 103
142 31 447
143 31 287
144 31 829
145 31 644
146 30 720
147 30 165
148 30 578
149 30 6
150 30 705
151 30 672
152 30 712
153 30 437
154 30 2
155 30 601
156 30 542
157 30 247
158 30 411
159 30 157
160 30 931
161 30 457
162 30 720
163 30 258
164 30 279
165 30 665
166 30 592
167 30 578
168 30 612
169 30 159
170 30 861
171 30 176
172 30 361
173 30 429
174 30 293
175 30 338
176 30 569
177 29 713
178 29 601
179 29 444
180 29 618
181 29 844
182 29 372
183 29 661
184 29 511
185 29 246
186 29 820
187 29 422
188 29 68
189 29 305
190 29 777
191 29 267
192 29 77
193 29 127
194 29 65
195 29 913
196 29 668
197 29 992
198 29 1
199 29 581
200 29 487
201 29 698
202 28 885
203 28 443
204 28 995
205 28 256
206 28 750
207 28 282
208 28 499
209 28 637
210 28 978
211 28 34
212 28 294
213 28 899
214 28 424
215 28 419
216 28 849
217 28 127
218 28 940
219 28 760
220 28 821
221 28 763
222 28 472
223 28 428
224 28 163
225 27 600
226 27 592
227 27 281
228 27 472
229 27 272
230 27 801
231 27 57
232 27 463
233 27 731
234 27 710
235 27 149
236 27 377
237 27 691
238 27 641
239 27 55
240 27 450
241 27 631
242 27 474
243 27 479
244 27 387
245 27 759
246 27 644
247 27 7
248 27 438
249 27 42
250 27 253
251 27 482
252 27 823
253 27 487
254 27 422
255 27 435
256 27 819
257 27 171
258 27 996
259 27 880
260 27 13
261 27 174
262 27 488
263 27 453
264 27 125
265 26 794
266 26 850
267 26 941
268 26 369
269 26 282
270 26 60
271 26 349
272 26 867
273 26 726
274 26 58
275 26 75
276 26 801
277 26 123
278 26 944
279 26 358
280 26 543
281 26 256
282 26 181
283 26 647
284 26 998
285 26 671
286 26 17
287 26 532
288 26 126
289 26 873
290 26 180
291 26 816
292 26 160
293 26 634
294 26 773
295 26 226
296 26 314
297 26 593
298 26 320
299 26 300
300 25 59
301 25 305
302 25 127
303 25 267
304 25 887
305 25 376
306 25 957
307 25 140
308 25 470
309 25 960
310 25 885
311 25 552
312 25 231
313 25 600
314 25 134
315 25 328
316 25 405
317 25 376
318 25 652
319 25 209
320 25 971
321 25 323
322 25 532
323 25 824
324 25 822
325 25 952
326 25 944
327 25 115
328 25 529
329 25 39
330 24 444
331 24 189
332 24 951
333 24 364
334 24 130
335 24 889
336 24 441
337 24 641
338 24 872
339 24 703
340 24 687
341 24 85
342 24 272
343 24 3
344 24 356
345 24 475
346 24 880
347 24 82
348 24 891
349 24 688
350 24 497
351 24 304
352 24 693
353 24 596
354 24 951
355 24 728
356 24 97
357 24 70
358 24 656
359 24 193
360 24 957
361 24 120
362 23 634
363 23 254
364 23 938
365 23 747
366 23 567
367 23 694
368 23 672
369 23 450
370 23 459
371 23 625
372 23 645
373 23 296
374 23 103
375 23 500
376 23 319
377 23 172
378 23 655
379 23 193
380 23 607
381 23 875
382 23 162
383 23 501
384 23 751
385 23 899
386 23 653
387 23 594
388 23 404
389 23 347
390 23 921
391 23 204
392 23 164
393 23 578
394 22 657
395 22 83
396 22 394
397 22 844
398 22 409
399 22 518
400 22 838
401 22 758
402 22 732
403 22 449
404 22 545
405 22 585
406 22 663
407 22 135
408 22 645
409 22 657
410 22 459
411 22 697
412 22 695
413 22 819
414 22 725
415 22 388
416 22 571
417 22 491
418 22 843
419 22 77
420 22 281
421 22 959
422 22 143
423 21 517
424 21 231
425 21 214
426 21 526
427 21 60
428 21 634
429 21 652
430 21 180
431 21 748
432 21 518
433 21 322
434 21 222
435 21 404
436 21 211
437 21 601
438 21 805
439 21 725
440 21 772
441 21 154
442 21 577
443 21 283
444 20 247
445 20 305
446 20 206
447 20 740
448 20 571
449 20 318
450 20 618
451 20 249
452 20 862
453 20 717
454 20 555
455 20 523
456 20 21
457 20 678
458 20 800
459 20 693
460 20 824
461 20 372
462 20 430
463 20 24
464 20 582
465 20 501
466 20 803
467 20 77
468 20 985
469 19 726
470 19 719
471 19 344
472 19 900
473 19 346
474 19 321
475 19 112
476 19 59
477 19 794
478 19 434
479 19 856
480 19 125
481 19 837
482 19 887
483 19 950
484 19 611
485 19 332
486 19 322
487 19 366
488 19 589
489 19 407
490 19 827
491 19 680
492 19 928
493 19 24
494 19 630
495 19 680
496 19 58
497 19 682
498 19 862
499 19 864
500 19 519
501 19 581
502 19 633
503 19 87
504 19 375
505 19 488
506 19 33
507 18 599
508 18 356
509 18 451
510 18 701
511 18 158
512 18 984
513 18 49
514 18 546
515 18 582
516 18 128
517 18 661
518 18 414
519 18 709
520 18 854
521 18 540
522 18 667
523 18 337
524 18 592
525 18 99
526 18 609
527 18 809
528 18 218
529 18 381
530 18 901
531 18 822
532 18 253
533 18 441
534 18 472
535 18 195
536 18 407
537 18 514
538 18 640
539 17 634
540 17 159
541 17 449
542 17 293
543 17 395
544 17 448
545 17 132
546 17 335
547 17 403
548 17 235
549 17 751
550 17 633
551 17 518
552 17 324
553 17 332
554 17 165
555 17 581
556 17 655
557 17 809
558 17 444
559 17 732
560 17 202
561 17 466
562 17 131
563 17 337
564 17 847
565 17 290
566 17 685
567 17 518
568 17 986
569 16 921
570 16 389
571 16 781
572 16 188
573 16 994
574 16 348
575 16 814
576 16 263
577 16 421
578 16 461
579 16 485
580 16 384
581 16 92
582 16 838
583 16 960
584 16 511
585 16 617
586 16 106
587 16 489
588 15 330
589 15 616
590 15 209
591 15 466
592 15 207
593 15 10
594 15 196
595 15 792
596 15 325
597 15 755
598 15 881
599 15 655
600 15 409
601 15 651
602 15 873
603 15 704
604 15 419
605 15 598
606 15 214
607 15 831
608 14 155
609 14 959
610 14 739
611 14 848
612 14 342
613 14 663
614 14 579
615 14 726
616 14 335
617 14 666
618 14 512
619 14 380
620 14 904
621 14 49
622 14 232
623 14 634
624 14 54
625 14 252
626 14 563
627 14 864
628 14 658
629 14 781
630 14 419
631 14 57
632 14 705
633 14 324
634 14 325
635 14 960
636 14 568
637 14 254
638 14 956
639 14 554
640 14 902
641 14 329
642 14 778
643 13 610
644 13 76
645 13 714
646 13 385
647 13 747
648 13 135
649 13 162
650 13 389
651 13 291
652 13 752
653 13 288
654 13 638
655 13 955
656 13 469
657 13 340
658 13 390
659 13 510
660 13 976
661 13 569
662 13 550
663 13 740
664 13 25
665 13 934
666 13 16
667 13 439
668 13 482
669 13 186
670 13 258
671 13 755
672 13 402
673 13 873
674 13 225
675 13 815
676 13 330
677 13 702
678 13 625
679 12 333
680 12 9
681 12 690
682 12 949
683 12 542
684 12 580
685 12 862
686 12 689
687 12 396
688 12 329
689 12 467
690 12 769
691 12 56
692 12 43
693 12 834
694 12 818
695 12 28
696 12 629
697 12 333
698 12 283
699 12 984
700 12 38
701 12 318
702 12 782
703 12 229
704 11 926
705 11 638
706 11 264
707 11 374
708 11 144
709 11 541
710 11 464
711 11 772
712 11 447
713 11 87
714 11 768
715 11 269
716 11 690
717 11 235
718 11 110
719 11 807
720 11 948
721 11 865
722 11 219
723 11 861
724 11 790
725 11 350
726 11 119
727 11 685
728 10 98
729 10 733
730 10 495
731 10 503
732 10 251
733 10 342
734 10 545
735 10 821
736 10 152
737 10 122
738 10 575
739 10 167
740 10 439
741 10 381
742 10 85
743 10 281
744 10 57
745 10 376
746 10 354
747 10 424
748 10 287
749 10 869
750 10 30
